\ENCODING=ISO-8859-1
\Problem name: nSARP

Maximize
 obj: 8.205 x(0,1,0) + 8.154 x(0,2,0) + 8.554 x(0,4,0) + 8.219 x(1,0,0)
      + 8.398 x(1,2,0) + 9.181 x(1,4,0) + 8.268 x(2,0,0) + 8.248 x(2,1,0)
      + 8.773 x(2,4,0) - 1.27 x(3,0,0) - 1.024 x(3,1,0) - 1.206 x(3,2,0)
      + 0 y(4,0) + 0 w(4) + id229
Subject To
 Constraint1_0:    x(0,1,0) + x(0,2,0) + x(0,4,0)  = 1
 Constraint1_1:    x(1,0,0) + x(1,2,0) + x(1,4,0)  = 1
 Constraint1_2:    x(2,0,0) + x(2,1,0) + x(2,4,0)  = 1
 Constraint4_0_0:  x(0,1,0) + x(0,2,0) + x(0,4,0) - x(1,0,0) - x(2,0,0)
                   - x(3,0,0)  = 0
 Constraint4_1_0:  - x(0,1,0) + x(1,0,0) + x(1,2,0) + x(1,4,0) - x(2,1,0)
                   - x(3,1,0)  = 0
 Constraint4_2_0:  - x(0,2,0) - x(1,2,0) + x(2,0,0) + x(2,1,0) + x(2,4,0)
                   - x(3,2,0)  = 0
 Constraint5_0:    x(3,0,0) + x(3,1,0) + x(3,2,0)  = 1
 Constraint6_0:    x(0,4,0) + x(1,4,0) + x(2,4,0)  = 1
 Constraint7_0_0:  - 48 y(0,0) + b(0) <= 0
 Constraint7_1_0:  - 48 y(1,0) + b(1) <= 0
 Constraint7_2_0:  - 48 y(2,0) + b(2) <= 0
 Constraint7_3_0:  - 48 y(3,0) + b(3) <= 0
 Constraint9_0_1:  48 x(0,1,0) + b(0) - b(1) <= 47.7884110535406
 Constraint9_0_2:  48 x(0,2,0) + b(0) - b(2) <= 47.785768566494
 Constraint9_0_4:  48 x(0,4,0) + b(0) - b(4) <= 47.806493955095
 Constraint9_1_0:  48 x(1,0,0) - b(0) + b(1) <= 47.7458203799655
 Constraint9_1_2:  48 x(1,2,0) + b(1) - b(2) <= 47.7550949913644
 Constraint9_1_4:  48 x(1,4,0) + b(1) - b(4) <= 47.795664939551
 Constraint9_2_0:  48 x(2,0,0) - b(0) + b(2) <= 47.7765457685665
 Constraint9_2_1:  48 x(2,1,0) - b(1) + b(2) <= 47.7755094991364
 Constraint9_2_4:  48 x(2,4,0) + b(2) - b(4) <= 47.8027115716753
 Constraint9_3_0:  48 x(3,0,0) - b(0) + b(3) <= 47.9341968911917
 Constraint9_3_1:  48 x(3,1,0) - b(1) + b(3) <= 47.9469430051813
 Constraint9_3_2:  48 x(3,2,0) - b(2) + b(3) <= 47.9375129533679
 Constraint10_0:   x(0,1,0) + w(0) - w(1) <= 1
 Constraint10_1:   x(0,2,0) + w(0) - w(2) <= 1
 Constraint10_2:   x(1,0,0) - w(0) + w(1) <= 1
 Constraint10_3:   x(1,2,0) + w(1) - w(2) <= 1
 Constraint10_4:   x(2,0,0) - w(0) + w(2) <= 1
 Constraint10_5:   x(2,1,0) - w(1) + w(2) <= 1
 Constraint10_6:   x(3,0,0) - w(0) + w(3) <= 1
 Constraint10_7:   x(3,1,0) - w(1) + w(3) <= 1
 Constraint10_8:   x(3,2,0) - w(2) + w(3) <= 1
 Constraint11_0_0: b(0) <= 11.9
 Constraint12_0_0: b(0) >= 11.9
 Constraint11_1_0: b(1) <= 15.9833333333333
 Constraint12_1_0: b(1) >= 15.9833333333333
 Constraint11_2_0: b(2) <= 10.25
 Constraint12_2_0: b(2) >= 10.25
 Constraint13_0:   x(0,1,0) + w(0) <= 1
 Constraint13_1:   x(0,2,0) + w(0) <= 1
 Constraint13_2:   x(1,0,0) + w(1) <= 1
 Constraint13_3:   x(1,2,0) + w(1) <= 1
 Constraint13_4:   x(2,0,0) + w(2) <= 1
 Constraint13_5:   x(2,1,0) + w(2) <= 1
Bounds
 0 <= x(0,1,0) <= 1
 0 <= x(0,2,0) <= 1
 0 <= x(0,4,0) <= 1
 0 <= x(1,0,0) <= 1
 0 <= x(1,2,0) <= 1
 0 <= x(1,4,0) <= 1
 0 <= x(2,0,0) <= 1
 0 <= x(2,1,0) <= 1
 0 <= x(2,4,0) <= 1
 0 <= x(3,0,0) <= 1
 0 <= x(3,1,0) <= 1
 0 <= x(3,2,0) <= 1
 0 <= y(0,0) <= 1
 0 <= y(1,0) <= 1
 0 <= y(2,0) <= 1
 0 <= y(3,0) <= 1
 0 <= y(4,0) <= 1
 0 <= b(0) <= 24
 0 <= b(1) <= 24
 0 <= b(2) <= 24
 0 <= b(3) <= 24
 0 <= b(4) <= 24
 0 <= w(0) <= 1
 0 <= w(1) <= 1
 0 <= w(2) <= 1
 0 <= w(3) <= 1
 0 <= w(4) <= 1
      id229 = 0
Binaries
 x(0,1,0)  x(0,2,0)  x(0,4,0)  x(1,0,0)  x(1,2,0)  x(1,4,0)  x(2,0,0) 
 x(2,1,0)  x(2,4,0)  x(3,0,0)  x(3,1,0)  x(3,2,0)  y(0,0)  y(1,0)  y(2,0) 
 y(3,0)  y(4,0) 
End
